\ENCODING=ISO-8859-1
\Problem name: ilog.cplex

Minimize
 obj1: 109632 x1 + 105130 x2 + 96524 x3 + 101244 x4 + 107099 x5 + 103087 x6
       + 106062 x7 + 103040 x8 + 109810 x9 + 104145 x10 + 103471 x11
       + 108533 x12 + 108370 x13 + 104337 x14 + 94022 x15 + 101729 x16
       + 92457 x17 + 91079 x18 + 104722 x19 + 103456 x20 + 107221 x21
       + 95305 x22 + 102100 x23 + 92488 x24 + 104138 x25 + 104135 x26
       + 95186 x27 + 101981 x28 + 94769 x29 + 106728 x30 + 96143 x31
       + 108245 x32 + 105290 x33 + 102370 x34 + 105730 x35 + 103093 x36
       + 94658 x37 + 96886 x38 + 91066 x39 + 105889 x40 + 99948 x41 + 91177 x42
       + 109172 x43 + 106887 x44 + 108640 x45 + 103948 x46 + 101307 x47
       + 99590 x48 + 109547 x49 + 109635 x50 + 92095 x51 + 96357 x52
       + 90572 x53 + 102764 x54 + 94792 x55 + 93592 x56 + 100711 x57
       + 100413 x58 + 108999 x59 + 107070 x60 + 92172 x61 + 98343 x62
       + 102992 x63 + 105488 x64 + 97072 x65 + 106280 x66 + 97240 x67
       + 93469 x68 + 94014 x69 + 102874 x70 + 93277 x71 + 96637 x72
       + 104325 x73 + 104677 x74 + 107240 x75 + 109727 x76 + 94118 x77
       + 90456 x78 + 102991 x79 + 90119 x80 + 93016 x81 + 102682 x82
       + 104287 x83 + 107050 x84 + 92785 x85 + 96217 x86 + 90628 x87
       + 90155 x88 + 92072 x89 + 107958 x90 + 107235 x91 + 100149 x92
       + 107073 x93 + 100630 x94 + 106017 x95 + 109083 x96 + 92206 x97
       + 108889 x98 + 101445 x99 + 108017 x100 + 95856 x101 + 92529 x102
       + 100328 x103 + 93560 x104 + 104698 x105 + 101203 x106 + 96202 x107
       + 94140 x108 + 104263 x109 + 101703 x110 + 104403 x111 + 100687 x112
       + 100766 x113 + 109170 x114 + 99204 x115 + 94148 x116 + 104095 x117
       + 109973 x118 + 100836 x119 + 91554 x120 + 101214 x121 + 93394 x122
       + 90052 x123 + 99425 x124 + 103425 x125 + 93387 x126 + 106232 x127
       + 102241 x128 + 90446 x129 + 100753 x130 + 95526 x131 + 101481 x132
       + 95242 x133 + 96549 x134 + 106777 x135 + 94035 x136 + 100090 x137
       + 98662 x138 + 99890 x139 + 92694 x140 + 106616 x141 + 105227 x142
       + 93821 x143 + 106021 x144 + 100322 x145 + 100918 x146 + 99501 x147
       + 90033 x148 + 93614 x149 + 105141 x150 + 104764 x151 + 103866 x152
       + 106736 x153 + 90152 x154 + 108261 x155 + 92805 x156 + 100021 x157
       + 109212 x158 + 103006 x159 + 105064 x160 + 97032 x161 + 104004 x162
       + 92949 x163 + 97720 x164 + 95026 x165 + 91211 x166 + 100008 x167
       + 102510 x168 + 103975 x169 + 98165 x170 + 109263 x171 + 107593 x172
       + 95650 x173 + 99001 x174 + 105391 x175 + 94998 x176 + 105472 x177
       + 100767 x178 + 105763 x179 + 105487 x180 + 104278 x181 + 107718 x182
       + 104270 x183 + 96995 x184 + 98591 x185 + 91750 x186 + 99130 x187
       + 92781 x188 + 100036 x189 + 102235 x190 + 107850 x191 + 101113 x192
       + 107207 x193 + 99505 x194 + 92949 x195 + 109541 x196 + 106588 x197
       + 92797 x198 + 93215 x199 + 93738 x200 + 93389 x201 + 95270 x202
       + 99793 x203 + 106136 x204 + 95755 x205 + 95497 x206 + 101318 x207
       + 103130 x208 + 91322 x209 + 101154 x210 + 93377 x211 + 105720 x212
       + 105320 x213 + 109336 x214 + 102666 x215 + 99843 x216 + 103932 x217
       + 94606 x218 + 98634 x219 + 94748 x220 + 104646 x221 + 97016 x222
       + 99630 x223 + 90574 x224 + 106487 x225 + 95922 x226 + 101999 x227
       + 104497 x228 + 97739 x229 + 94021 x230 + 95296 x231 + 108341 x232
       + 96316 x233 + 105621 x234 + 99630 x235 + 107911 x236 + 91049 x237
       + 93307 x238 + 99607 x239 + 102284 x240 + 100964 x241 + 107970 x242
       + 93434 x243 + 99921 x244 + 93988 x245 + 98604 x246 + 105417 x247
       + 97689 x248 + 106559 x249 + 90320 x250 + 101686 x251 + 100141 x252
       + 95793 x253 + 90846 x254 + 105838 x255 + 106374 x256 + 107066 x257
       + 103965 x258 + 93697 x259 + 91193 x260 + 104687 x261 + 90348 x262
       + 92197 x263 + 98629 x264 + 96700 x265 + 101429 x266 + 105610 x267
       + 108416 x268 + 97659 x269 + 96101 x270 + 103822 x271 + 100208 x272
       + 105939 x273 + 90707 x274 + 97897 x275 + 91707 x276 + 100296 x277
       + 97415 x278 + 100251 x279 + 99465 x280 + 103041 x281 + 95716 x282
       + 104486 x283 + 97050 x284 + 92668 x285 + 98121 x286 + 98208 x287
       + 96870 x288 + 94913 x289 + 102956 x290 + 101084 x291 + 99141 x292
       + 97942 x293 + 94748 x294 + 99950 x295 + 94326 x296 + 104736 x297
       + 95763 x298 + 92946 x299 + 93824 x300 + 97774 x301 + 107375 x302
       + 104051 x303 + 102164 x304 + 108539 x305 + 107520 x306 + 108630 x307
       + 101156 x308 + 103781 x309 + 106404 x310 + 91502 x311 + 99562 x312
       + 93976 x313 + 102496 x314 + 97205 x315 + 102424 x316 + 105816 x317
       + 101567 x318 + 107145 x319 + 91265 x320 + 95147 x321 + 105101 x322
       + 95498 x323 + 92995 x324 + 100918 x325 + 100515 x326 + 93290 x327
       + 95026 x328 + 105080 x329 + 90654 x330 + 95663 x331 + 108307 x332
       + 102461 x333 + 93634 x334 + 106758 x335 + 106390 x336 + 109328 x337
       + 108345 x338 + 91640 x339 + 95688 x340 + 109715 x341 + 95796 x342
       + 95372 x343 + 99772 x344 + 94508 x345 + 91954 x346 + 95560 x347
       + 108855 x348 + 109909 x349 + 103873 x350 + 107610 x351 + 91718 x352
       + 99324 x353 + 93497 x354 + 103823 x355 + 90671 x356 + 101060 x357
       + 109459 x358 + 94915 x359 + 102556 x360 + 102294 x361 + 108334 x362
       + 106190 x363 + 104032 x364 + 107173 x365 + 90016 x366 + 102773 x367
       + 106112 x368 + 99601 x369 + 103461 x370 + 93838 x371 + 106906 x372
       + 109512 x373 + 99574 x374 + 106245 x375 + 109390 x376 + 107306 x377
       + 98205 x378 + 90756 x379 + 90088 x380 + 100412 x381 + 93197 x382
       + 95752 x383 + 107100 x384 + 100506 x385 + 97291 x386 + 105749 x387
       + 94040 x388 + 105092 x389 + 92128 x390 + 94968 x391 + 100225 x392
       + 92938 x393 + 97684 x394 + 109863 x395 + 106846 x396 + 109308 x397
       + 90183 x398 + 108723 x399 + 93866 x400 + 93055 x401 + 102552 x402
       + 109798 x403 + 107241 x404 + 98816 x405 + 90471 x406 + 105104 x407
       + 96993 x408 + 100361 x409 + 106862 x410 + 105930 x411 + 98051 x412
       + 106328 x413 + 106397 x414 + 101905 x415 + 93708 x416 + 96055 x417
       + 106326 x418 + 101011 x419 + 101888 x420 + 90507 x421 + 97238 x422
       + 96520 x423 + 109080 x424 + 90236 x425 + 97368 x426 + 99161 x427
       + 93920 x428 + 97805 x429 + 102335 x430 + 109050 x431 + 94836 x432
       + 107697 x433 + 104870 x434 + 92867 x435 + 96627 x436 + 108056 x437
       + 102394 x438 + 108342 x439 + 101982 x440 + 95466 x441 + 94239 x442
       + 100325 x443 + 95661 x444 + 96504 x445 + 94848 x446 + 100551 x447
       + 101459 x448 + 97948 x449 + 94467 x450 + 104646 x451 + 95049 x452
       + 109151 x453 + 96611 x454 + 92286 x455 + 107147 x456 + 92794 x457
       + 105840 x458 + 93034 x459 + 98381 x460 + 99065 x461 + 96180 x462
       + 102478 x463 + 95893 x464 + 104048 x465 + 90595 x466 + 91924 x467
       + 91974 x468 + 93512 x469 + 104296 x470 + 104439 x471 + 107743 x472
       + 101762 x473 + 93579 x474 + 96411 x475 + 94295 x476 + 104127 x477
       + 96576 x478 + 100047 x479 + 107062 x480 + 92570 x481 + 104206 x482
       + 93022 x483 + 93173 x484 + 102538 x485 + 104045 x486 + 92938 x487
       + 101320 x488 + 108375 x489 + 99815 x490 + 106283 x491 + 98979 x492
       + 104532 x493 + 104881 x494 + 94259 x495 + 102775 x496 + 100250 x497
       + 99367 x498 + 91173 x499 + 50756 x500 + 37500 x501 + 36006 x502
       + 42015 x503 + 36455 x504 + 36208 x505 + 43639 x506 + 36741 x507
       + 36563 x508 + 41501 x509 + 40872 x510 + 43791 x511 + 37983 x512
       + 38176 x513 + 43939 x514 + 39922 x515 + 42496 x516 + 43044 x517
       + 40471 x518 + 39857 x519 + 39795 x520 + 37231 x521 + 41560 x522
       + 39268 x523 + 41346 x524 + 41211 x525 + 38610 x526 + 41537 x527
       + 39296 x528 + 37592 x529 + 37211 x530 + 41982 x531 + 42259 x532
       + 38130 x533 + 40202 x534 + 40017 x535 + 42110 x536 + 43667 x537
       + 38688 x538 + 43311 x539 + 38916 x540 + 38587 x541 + 39181 x542
       + 42302 x543 + 38873 x544 + 39120 x545 + 43146 x546 + 36532 x547
       + 42659 x548 + 41256 x549 + 37226 x550
Subject To
 c1:   - x1 - x13 + x17 + x20 + x31 + x32 + x33 + x43 - x47 - x48  = 0
 c2:   - x51 - x63 + x67 + x70 + x81 + x82 + x83 + x93 - x97 - x98  = 0
 c3:   - x101 - x113 + x117 + x120 + x131 + x132 + x133 + x143 - x147 - x148
        = 0
 c4:   - x151 - x163 + x167 + x170 + x181 + x182 + x183 + x193 - x197 - x198
        = 0
 c5:   - x201 - x213 + x217 + x220 + x231 + x232 + x233 + x243 - x247 - x248
        = 0
 c6:   - x251 - x263 + x267 + x270 + x281 + x282 + x283 + x293 - x297 - x298
        = 0
 c7:   - x301 - x313 + x317 + x320 + x331 + x332 + x333 + x343 - x347 - x348
        = 1
 c8:   - x351 - x363 + x367 + x370 + x381 + x382 + x383 + x393 - x397 - x398
        = 0
 c9:   - x401 - x413 + x417 + x420 + x431 + x432 + x433 + x443 - x447 - x448
        = -1
 c10:  - x451 - x463 + x467 + x470 + x481 + x482 + x483 + x493 - x497 - x498
        = -1
 c11:  x3 + x9 - x19 + x34 - x35 + x38 - x39 - x44  = 0
 c12:  x53 + x59 - x69 + x84 - x85 + x88 - x89 - x94  = 0
 c13:  x103 + x109 - x119 + x134 - x135 + x138 - x139 - x144  = -1
 c14:  x153 + x159 - x169 + x184 - x185 + x188 - x189 - x194  = 0
 c15:  x203 + x209 - x219 + x234 - x235 + x238 - x239 - x244  = 0
 c16:  x253 + x259 - x269 + x284 - x285 + x288 - x289 - x294  = 0
 c17:  x303 + x309 - x319 + x334 - x335 + x338 - x339 - x344  = 0
 c18:  x353 + x359 - x369 + x384 - x385 + x388 - x389 - x394  = 0
 c19:  x403 + x409 - x419 + x434 - x435 + x438 - x439 - x444  = 0
 c20:  x453 + x459 - x469 + x484 - x485 + x488 - x489 - x494  = 0
 c21:  x1 - x4 - x7 - x11 - x12 - x14 + x21 + x23 - x33 - x34 + x40 - x46 + x49
        = 1
 c22:  x51 - x54 - x57 - x61 - x62 - x64 + x71 + x73 - x83 - x84 + x90 - x96
       + x99  = 0
 c23:  x101 - x104 - x107 - x111 - x112 - x114 + x121 + x123 - x133 - x134
       + x140 - x146 + x149  = 0
 c24:  x151 - x154 - x157 - x161 - x162 - x164 + x171 + x173 - x183 - x184
       + x190 - x196 + x199  = 0
 c25:  x201 - x204 - x207 - x211 - x212 - x214 + x221 + x223 - x233 - x234
       + x240 - x246 + x249  = 0
 c26:  x251 - x254 - x257 - x261 - x262 - x264 + x271 + x273 - x283 - x284
       + x290 - x296 + x299  = 0
 c27:  x301 - x304 - x307 - x311 - x312 - x314 + x321 + x323 - x333 - x334
       + x340 - x346 + x349  = -1
 c28:  x351 - x354 - x357 - x361 - x362 - x364 + x371 + x373 - x383 - x384
       + x390 - x396 + x399  = 1
 c29:  x401 - x404 - x407 - x411 - x412 - x414 + x421 + x423 - x433 - x434
       + x440 - x446 + x449  = 0
 c30:  x451 - x454 - x457 - x461 - x462 - x464 + x471 + x473 - x483 - x484
       + x490 - x496 + x499  = 1
 c31:  x11 + x13 + x18 + x29 - x36 - x38 + x39 - x42 + x50  = -1
 c32:  x61 + x63 + x68 + x79 - x86 - x88 + x89 - x92 + x100  = 1
 c33:  x111 + x113 + x118 + x129 - x136 - x138 + x139 - x142 + x150  = 0
 c34:  x161 + x163 + x168 + x179 - x186 - x188 + x189 - x192 + x200  = 0
 c35:  x211 + x213 + x218 + x229 - x236 - x238 + x239 - x242 + x250  = -1
 c36:  x261 + x263 + x268 + x279 - x286 - x288 + x289 - x292 + x300  = 0
 c37:  x311 + x313 + x318 + x329 - x336 - x338 + x339 - x342 + x350  = 0
 c38:  x361 + x363 + x368 + x379 - x386 - x388 + x389 - x392 + x400  = 0
 c39:  x411 + x413 + x418 + x429 - x436 - x438 + x439 - x442 + x450  = 1
 c40:  x461 + x463 + x468 + x479 - x486 - x488 + x489 - x492 + x500  = 0
 c41:  x5 + x7 - x8 - x10 + x15 - x17 - x24 - x25 + x26 + x36 - x41 + x44 - x49
        = 0
 c42:  x55 + x57 - x58 - x60 + x65 - x67 - x74 - x75 + x76 + x86 - x91 + x94
       - x99  = 0
 c43:  x105 + x107 - x108 - x110 + x115 - x117 - x124 - x125 + x126 + x136
       - x141 + x144 - x149  = 0
 c44:  x155 + x157 - x158 - x160 + x165 - x167 - x174 - x175 + x176 + x186
       - x191 + x194 - x199  = 1
 c45:  x205 + x207 - x208 - x210 + x215 - x217 - x224 - x225 + x226 + x236
       - x241 + x244 - x249  = 0
 c46:  x255 + x257 - x258 - x260 + x265 - x267 - x274 - x275 + x276 + x286
       - x291 + x294 - x299  = 0
 c47:  x305 + x307 - x308 - x310 + x315 - x317 - x324 - x325 + x326 + x336
       - x341 + x344 - x349  = 0
 c48:  x355 + x357 - x358 - x360 + x365 - x367 - x374 - x375 + x376 + x386
       - x391 + x394 - x399  = -1
 c49:  x405 + x407 - x408 - x410 + x415 - x417 - x424 - x425 + x426 + x436
       - x441 + x444 - x449  = 0
 c50:  x455 + x457 - x458 - x460 + x465 - x467 - x474 - x475 + x476 + x486
       - x491 + x494 - x499  = 0
 c51:  - x2 + x4 - x5 + x6 + x8 + x19 - x23 + x28 - x30 - x37 + x48  = 0
 c52:  - x52 + x54 - x55 + x56 + x58 + x69 - x73 + x78 - x80 - x87 + x98  = -1
 c53:  - x102 + x104 - x105 + x106 + x108 + x119 - x123 + x128 - x130 - x137
       + x148  = 0
 c54:  - x152 + x154 - x155 + x156 + x158 + x169 - x173 + x178 - x180 - x187
       + x198  = -1
 c55:  - x202 + x204 - x205 + x206 + x208 + x219 - x223 + x228 - x230 - x237
       + x248  = 0
 c56:  - x252 + x254 - x255 + x256 + x258 + x269 - x273 + x278 - x280 - x287
       + x298  = -1
 c57:  - x302 + x304 - x305 + x306 + x308 + x319 - x323 + x328 - x330 - x337
       + x348  = 0
 c58:  - x352 + x354 - x355 + x356 + x358 + x369 - x373 + x378 - x380 - x387
       + x398  = 0
 c59:  - x402 + x404 - x405 + x406 + x408 + x419 - x423 + x428 - x430 - x437
       + x448  = 0
 c60:  - x452 + x454 - x455 + x456 + x458 + x469 - x473 + x478 - x480 - x487
       + x498  = 0
 c61:  x2 - x18 - x20 - x40 + x41 + x45  = 0
 c62:  x52 - x68 - x70 - x90 + x91 + x95  = 0
 c63:  x102 - x118 - x120 - x140 + x141 + x145  = 0
 c64:  x152 - x168 - x170 - x190 + x191 + x195  = 0
 c65:  x202 - x218 - x220 - x240 + x241 + x245  = 0
 c66:  x252 - x268 - x270 - x290 + x291 + x295  = 0
 c67:  x302 - x318 - x320 - x340 + x341 + x345  = 0
 c68:  x352 - x368 - x370 - x390 + x391 + x395  = 0
 c69:  x402 - x418 - x420 - x440 + x441 + x445  = 0
 c70:  x452 - x468 - x470 - x490 + x491 + x495  = 0
 c71:  - x9 + x10 + x12 - x16 - x22 - x26 - x29 + x30 - x32  = 0
 c72:  - x59 + x60 + x62 - x66 - x72 - x76 - x79 + x80 - x82  = 0
 c73:  - x109 + x110 + x112 - x116 - x122 - x126 - x129 + x130 - x132  = 0
 c74:  - x159 + x160 + x162 - x166 - x172 - x176 - x179 + x180 - x182  = 0
 c75:  - x209 + x210 + x212 - x216 - x222 - x226 - x229 + x230 - x232  = 1
 c76:  - x259 + x260 + x262 - x266 - x272 - x276 - x279 + x280 - x282  = 0
 c77:  - x309 + x310 + x312 - x316 - x322 - x326 - x329 + x330 - x332  = 0
 c78:  - x359 + x360 + x362 - x366 - x372 - x376 - x379 + x380 - x382  = 0
 c79:  - x409 + x410 + x412 - x416 - x422 - x426 - x429 + x430 - x432  = 0
 c80:  - x459 + x460 + x462 - x466 - x472 - x476 - x479 + x480 - x482  = 0
 c81:  - x3 - x6 - x15 + x22 + x25 + x27 + x35 + x37 + x42 - x43 - x45 + x46
       - x50  = 0
 c82:  - x53 - x56 - x65 + x72 + x75 + x77 + x85 + x87 + x92 - x93 - x95 + x96
       - x100  = 0
 c83:  - x103 - x106 - x115 + x122 + x125 + x127 + x135 + x137 + x142 - x143
       - x145 + x146 - x150  = 1
 c84:  - x153 - x156 - x165 + x172 + x175 + x177 + x185 + x187 + x192 - x193
       - x195 + x196 - x200  = 0
 c85:  - x203 - x206 - x215 + x222 + x225 + x227 + x235 + x237 + x242 - x243
       - x245 + x246 - x250  = 0
 c86:  - x253 - x256 - x265 + x272 + x275 + x277 + x285 + x287 + x292 - x293
       - x295 + x296 - x300  = 0
 c87:  - x303 - x306 - x315 + x322 + x325 + x327 + x335 + x337 + x342 - x343
       - x345 + x346 - x350  = 0
 c88:  - x353 - x356 - x365 + x372 + x375 + x377 + x385 + x387 + x392 - x393
       - x395 + x396 - x400  = 0
 c89:  - x403 - x406 - x415 + x422 + x425 + x427 + x435 + x437 + x442 - x443
       - x445 + x446 - x450  = 0
 c90:  - x453 - x456 - x465 + x472 + x475 + x477 + x485 + x487 + x492 - x493
       - x495 + x496 - x500  = 0
 c91:  x14 + x16 - x21 + x24 - x27 - x28 - x31 + x47  = 0
 c92:  x64 + x66 - x71 + x74 - x77 - x78 - x81 + x97  = 0
 c93:  x114 + x116 - x121 + x124 - x127 - x128 - x131 + x147  = 0
 c94:  x164 + x166 - x171 + x174 - x177 - x178 - x181 + x197  = 0
 c95:  x214 + x216 - x221 + x224 - x227 - x228 - x231 + x247  = 0
 c96:  x264 + x266 - x271 + x274 - x277 - x278 - x281 + x297  = 1
 c97:  x314 + x316 - x321 + x324 - x327 - x328 - x331 + x347  = 0
 c98:  x364 + x366 - x371 + x374 - x377 - x378 - x381 + x397  = 0
 c99:  x414 + x416 - x421 + x424 - x427 - x428 - x431 + x447  = 0
 c100: x464 + x466 - x471 + x474 - x477 - x478 - x481 + x497  = 0
 c101: 4 x1 + 4 x51 + 4 x101 + 4 x151 + 4 x201 + 4 x251 + 4 x301 + 4 x351
       + 4 x401 + 4 x451 - 5 x501 <= 0
 c102: 4 x2 + 4 x52 + 4 x102 + 4 x152 + 4 x202 + 4 x252 + 4 x302 + 4 x352
       + 4 x402 + 4 x452 - 5 x502 <= 0
 c103: 4 x3 + 4 x53 + 4 x103 + 4 x153 + 4 x203 + 4 x253 + 4 x303 + 4 x353
       + 4 x403 + 4 x453 - 5 x503 <= 0
 c104: 4 x4 + 4 x54 + 4 x104 + 4 x154 + 4 x204 + 4 x254 + 4 x304 + 4 x354
       + 4 x404 + 4 x454 - 5 x504 <= 0
 c105: 4 x5 + 4 x55 + 4 x105 + 4 x155 + 4 x205 + 4 x255 + 4 x305 + 4 x355
       + 4 x405 + 4 x455 - 5 x505 <= 0
 c106: 4 x6 + 4 x56 + 4 x106 + 4 x156 + 4 x206 + 4 x256 + 4 x306 + 4 x356
       + 4 x406 + 4 x456 - 5 x506 <= 0
 c107: 4 x7 + 4 x57 + 4 x107 + 4 x157 + 4 x207 + 4 x257 + 4 x307 + 4 x357
       + 4 x407 + 4 x457 - 5 x507 <= 0
 c108: 4 x8 + 4 x58 + 4 x108 + 4 x158 + 4 x208 + 4 x258 + 4 x308 + 4 x358
       + 4 x408 + 4 x458 - 5 x508 <= 0
 c109: 4 x9 + 4 x59 + 4 x109 + 4 x159 + 4 x209 + 4 x259 + 4 x309 + 4 x359
       + 4 x409 + 4 x459 - 5 x509 <= 0
 c110: 4 x10 + 4 x60 + 4 x110 + 4 x160 + 4 x210 + 4 x260 + 4 x310 + 4 x360
       + 4 x410 + 4 x460 - 5 x510 <= 0
 c111: 4 x11 + 4 x61 + 4 x111 + 4 x161 + 4 x211 + 4 x261 + 4 x311 + 4 x361
       + 4 x411 + 4 x461 - 5 x511 <= 0
 c112: 4 x12 + 4 x62 + 4 x112 + 4 x162 + 4 x212 + 4 x262 + 4 x312 + 4 x362
       + 4 x412 + 4 x462 - 5 x512 <= 0
 c113: 4 x13 + 4 x63 + 4 x113 + 4 x163 + 4 x213 + 4 x263 + 4 x313 + 4 x363
       + 4 x413 + 4 x463 - 5 x513 <= 0
 c114: 4 x14 + 4 x64 + 4 x114 + 4 x164 + 4 x214 + 4 x264 + 4 x314 + 4 x364
       + 4 x414 + 4 x464 - 5 x514 <= 0
 c115: 4 x15 + 4 x65 + 4 x115 + 4 x165 + 4 x215 + 4 x265 + 4 x315 + 4 x365
       + 4 x415 + 4 x465 - 5 x515 <= 0
 c116: 4 x16 + 4 x66 + 4 x116 + 4 x166 + 4 x216 + 4 x266 + 4 x316 + 4 x366
       + 4 x416 + 4 x466 - 5 x516 <= 0
 c117: 4 x17 + 4 x67 + 4 x117 + 4 x167 + 4 x217 + 4 x267 + 4 x317 + 4 x367
       + 4 x417 + 4 x467 - 5 x517 <= 0
 c118: 4 x18 + 4 x68 + 4 x118 + 4 x168 + 4 x218 + 4 x268 + 4 x318 + 4 x368
       + 4 x418 + 4 x468 - 5 x518 <= 0
 c119: 4 x19 + 4 x69 + 4 x119 + 4 x169 + 4 x219 + 4 x269 + 4 x319 + 4 x369
       + 4 x419 + 4 x469 - 5 x519 <= 0
 c120: 4 x20 + 4 x70 + 4 x120 + 4 x170 + 4 x220 + 4 x270 + 4 x320 + 4 x370
       + 4 x420 + 4 x470 - 5 x520 <= 0
 c121: 4 x21 + 4 x71 + 4 x121 + 4 x171 + 4 x221 + 4 x271 + 4 x321 + 4 x371
       + 4 x421 + 4 x471 - 5 x521 <= 0
 c122: 4 x22 + 4 x72 + 4 x122 + 4 x172 + 4 x222 + 4 x272 + 4 x322 + 4 x372
       + 4 x422 + 4 x472 - 5 x522 <= 0
 c123: 4 x23 + 4 x73 + 4 x123 + 4 x173 + 4 x223 + 4 x273 + 4 x323 + 4 x373
       + 4 x423 + 4 x473 - 5 x523 <= 0
 c124: 4 x24 + 4 x74 + 4 x124 + 4 x174 + 4 x224 + 4 x274 + 4 x324 + 4 x374
       + 4 x424 + 4 x474 - 5 x524 <= 0
 c125: 4 x25 + 4 x75 + 4 x125 + 4 x175 + 4 x225 + 4 x275 + 4 x325 + 4 x375
       + 4 x425 + 4 x475 - 5 x525 <= 0
 c126: 4 x26 + 4 x76 + 4 x126 + 4 x176 + 4 x226 + 4 x276 + 4 x326 + 4 x376
       + 4 x426 + 4 x476 - 5 x526 <= 0
 c127: 4 x27 + 4 x77 + 4 x127 + 4 x177 + 4 x227 + 4 x277 + 4 x327 + 4 x377
       + 4 x427 + 4 x477 - 5 x527 <= 0
 c128: 4 x28 + 4 x78 + 4 x128 + 4 x178 + 4 x228 + 4 x278 + 4 x328 + 4 x378
       + 4 x428 + 4 x478 - 5 x528 <= 0
 c129: 4 x29 + 4 x79 + 4 x129 + 4 x179 + 4 x229 + 4 x279 + 4 x329 + 4 x379
       + 4 x429 + 4 x479 - 5 x529 <= 0
 c130: 4 x30 + 4 x80 + 4 x130 + 4 x180 + 4 x230 + 4 x280 + 4 x330 + 4 x380
       + 4 x430 + 4 x480 - 5 x530 <= 0
 c131: 4 x31 + 4 x81 + 4 x131 + 4 x181 + 4 x231 + 4 x281 + 4 x331 + 4 x381
       + 4 x431 + 4 x481 - 5 x531 <= 0
 c132: 4 x32 + 4 x82 + 4 x132 + 4 x182 + 4 x232 + 4 x282 + 4 x332 + 4 x382
       + 4 x432 + 4 x482 - 5 x532 <= 0
 c133: 4 x33 + 4 x83 + 4 x133 + 4 x183 + 4 x233 + 4 x283 + 4 x333 + 4 x383
       + 4 x433 + 4 x483 - 5 x533 <= 0
 c134: 4 x34 + 4 x84 + 4 x134 + 4 x184 + 4 x234 + 4 x284 + 4 x334 + 4 x384
       + 4 x434 + 4 x484 - 5 x534 <= 0
 c135: 4 x35 + 4 x85 + 4 x135 + 4 x185 + 4 x235 + 4 x285 + 4 x335 + 4 x385
       + 4 x435 + 4 x485 - 5 x535 <= 0
 c136: 4 x36 + 4 x86 + 4 x136 + 4 x186 + 4 x236 + 4 x286 + 4 x336 + 4 x386
       + 4 x436 + 4 x486 - 5 x536 <= 0
 c137: 4 x37 + 4 x87 + 4 x137 + 4 x187 + 4 x237 + 4 x287 + 4 x337 + 4 x387
       + 4 x437 + 4 x487 - 5 x537 <= 0
 c138: 4 x38 + 4 x88 + 4 x138 + 4 x188 + 4 x238 + 4 x288 + 4 x338 + 4 x388
       + 4 x438 + 4 x488 - 5 x538 <= 0
 c139: 4 x39 + 4 x89 + 4 x139 + 4 x189 + 4 x239 + 4 x289 + 4 x339 + 4 x389
       + 4 x439 + 4 x489 - 5 x539 <= 0
 c140: 4 x40 + 4 x90 + 4 x140 + 4 x190 + 4 x240 + 4 x290 + 4 x340 + 4 x390
       + 4 x440 + 4 x490 - 5 x540 <= 0
 c141: 4 x41 + 4 x91 + 4 x141 + 4 x191 + 4 x241 + 4 x291 + 4 x341 + 4 x391
       + 4 x441 + 4 x491 - 5 x541 <= 0
 c142: 4 x42 + 4 x92 + 4 x142 + 4 x192 + 4 x242 + 4 x292 + 4 x342 + 4 x392
       + 4 x442 + 4 x492 - 5 x542 <= 0
 c143: 4 x43 + 4 x93 + 4 x143 + 4 x193 + 4 x243 + 4 x293 + 4 x343 + 4 x393
       + 4 x443 + 4 x493 - 5 x543 <= 0
 c144: 4 x44 + 4 x94 + 4 x144 + 4 x194 + 4 x244 + 4 x294 + 4 x344 + 4 x394
       + 4 x444 + 4 x494 - 5 x544 <= 0
 c145: 4 x45 + 4 x95 + 4 x145 + 4 x195 + 4 x245 + 4 x295 + 4 x345 + 4 x395
       + 4 x445 + 4 x495 - 5 x545 <= 0
 c146: 4 x46 + 4 x96 + 4 x146 + 4 x196 + 4 x246 + 4 x296 + 4 x346 + 4 x396
       + 4 x446 + 4 x496 - 5 x546 <= 0
 c147: 4 x47 + 4 x97 + 4 x147 + 4 x197 + 4 x247 + 4 x297 + 4 x347 + 4 x397
       + 4 x447 + 4 x497 - 5 x547 <= 0
 c148: 4 x48 + 4 x98 + 4 x148 + 4 x198 + 4 x248 + 4 x298 + 4 x348 + 4 x398
       + 4 x448 + 4 x498 - 5 x548 <= 0
 c149: 4 x49 + 4 x99 + 4 x149 + 4 x199 + 4 x249 + 4 x299 + 4 x349 + 4 x399
       + 4 x449 + 4 x499 - 5 x549 <= 0
 c150: 4 x50 + 4 x100 + 4 x150 + 4 x200 + 4 x250 + 4 x300 + 4 x350 + 4 x400
       + 4 x450 + 4 x500 - 5 x550 <= 0
Bounds
 0 <= x1 <= 1
 0 <= x2 <= 1
 0 <= x3 <= 1
 0 <= x4 <= 1
 0 <= x5 <= 1
 0 <= x6 <= 1
 0 <= x7 <= 1
 0 <= x8 <= 1
 0 <= x9 <= 1
 0 <= x10 <= 1
 0 <= x11 <= 1
 0 <= x12 <= 1
 0 <= x13 <= 1
 0 <= x14 <= 1
 0 <= x15 <= 1
 0 <= x16 <= 1
 0 <= x17 <= 1
 0 <= x18 <= 1
 0 <= x19 <= 1
 0 <= x20 <= 1
 0 <= x21 <= 1
 0 <= x22 <= 1
 0 <= x23 <= 1
 0 <= x24 <= 1
 0 <= x25 <= 1
 0 <= x26 <= 1
 0 <= x27 <= 1
 0 <= x28 <= 1
 0 <= x29 <= 1
 0 <= x30 <= 1
 0 <= x31 <= 1
 0 <= x32 <= 1
 0 <= x33 <= 1
 0 <= x34 <= 1
 0 <= x35 <= 1
 0 <= x36 <= 1
 0 <= x37 <= 1
 0 <= x38 <= 1
 0 <= x39 <= 1
 0 <= x40 <= 1
 0 <= x41 <= 1
 0 <= x42 <= 1
 0 <= x43 <= 1
 0 <= x44 <= 1
 0 <= x45 <= 1
 0 <= x46 <= 1
 0 <= x47 <= 1
 0 <= x48 <= 1
 0 <= x49 <= 1
 0 <= x50 <= 1
 0 <= x51 <= 1
 0 <= x52 <= 1
 0 <= x53 <= 1
 0 <= x54 <= 1
 0 <= x55 <= 1
 0 <= x56 <= 1
 0 <= x57 <= 1
 0 <= x58 <= 1
 0 <= x59 <= 1
 0 <= x60 <= 1
 0 <= x61 <= 1
 0 <= x62 <= 1
 0 <= x63 <= 1
 0 <= x64 <= 1
 0 <= x65 <= 1
 0 <= x66 <= 1
 0 <= x67 <= 1
 0 <= x68 <= 1
 0 <= x69 <= 1
 0 <= x70 <= 1
 0 <= x71 <= 1
 0 <= x72 <= 1
 0 <= x73 <= 1
 0 <= x74 <= 1
 0 <= x75 <= 1
 0 <= x76 <= 1
 0 <= x77 <= 1
 0 <= x78 <= 1
 0 <= x79 <= 1
 0 <= x80 <= 1
 0 <= x81 <= 1
 0 <= x82 <= 1
 0 <= x83 <= 1
 0 <= x84 <= 1
 0 <= x85 <= 1
 0 <= x86 <= 1
 0 <= x87 <= 1
 0 <= x88 <= 1
 0 <= x89 <= 1
 0 <= x90 <= 1
 0 <= x91 <= 1
 0 <= x92 <= 1
 0 <= x93 <= 1
 0 <= x94 <= 1
 0 <= x95 <= 1
 0 <= x96 <= 1
 0 <= x97 <= 1
 0 <= x98 <= 1
 0 <= x99 <= 1
 0 <= x100 <= 1
 0 <= x101 <= 1
 0 <= x102 <= 1
 0 <= x103 <= 1
 0 <= x104 <= 1
 0 <= x105 <= 1
 0 <= x106 <= 1
 0 <= x107 <= 1
 0 <= x108 <= 1
 0 <= x109 <= 1
 0 <= x110 <= 1
 0 <= x111 <= 1
 0 <= x112 <= 1
 0 <= x113 <= 1
 0 <= x114 <= 1
 0 <= x115 <= 1
 0 <= x116 <= 1
 0 <= x117 <= 1
 0 <= x118 <= 1
 0 <= x119 <= 1
 0 <= x120 <= 1
 0 <= x121 <= 1
 0 <= x122 <= 1
 0 <= x123 <= 1
 0 <= x124 <= 1
 0 <= x125 <= 1
 0 <= x126 <= 1
 0 <= x127 <= 1
 0 <= x128 <= 1
 0 <= x129 <= 1
 0 <= x130 <= 1
 0 <= x131 <= 1
 0 <= x132 <= 1
 0 <= x133 <= 1
 0 <= x134 <= 1
 0 <= x135 <= 1
 0 <= x136 <= 1
 0 <= x137 <= 1
 0 <= x138 <= 1
 0 <= x139 <= 1
 0 <= x140 <= 1
 0 <= x141 <= 1
 0 <= x142 <= 1
 0 <= x143 <= 1
 0 <= x144 <= 1
 0 <= x145 <= 1
 0 <= x146 <= 1
 0 <= x147 <= 1
 0 <= x148 <= 1
 0 <= x149 <= 1
 0 <= x150 <= 1
 0 <= x151 <= 1
 0 <= x152 <= 1
 0 <= x153 <= 1
 0 <= x154 <= 1
 0 <= x155 <= 1
 0 <= x156 <= 1
 0 <= x157 <= 1
 0 <= x158 <= 1
 0 <= x159 <= 1
 0 <= x160 <= 1
 0 <= x161 <= 1
 0 <= x162 <= 1
 0 <= x163 <= 1
 0 <= x164 <= 1
 0 <= x165 <= 1
 0 <= x166 <= 1
 0 <= x167 <= 1
 0 <= x168 <= 1
 0 <= x169 <= 1
 0 <= x170 <= 1
 0 <= x171 <= 1
 0 <= x172 <= 1
 0 <= x173 <= 1
 0 <= x174 <= 1
 0 <= x175 <= 1
 0 <= x176 <= 1
 0 <= x177 <= 1
 0 <= x178 <= 1
 0 <= x179 <= 1
 0 <= x180 <= 1
 0 <= x181 <= 1
 0 <= x182 <= 1
 0 <= x183 <= 1
 0 <= x184 <= 1
 0 <= x185 <= 1
 0 <= x186 <= 1
 0 <= x187 <= 1
 0 <= x188 <= 1
 0 <= x189 <= 1
 0 <= x190 <= 1
 0 <= x191 <= 1
 0 <= x192 <= 1
 0 <= x193 <= 1
 0 <= x194 <= 1
 0 <= x195 <= 1
 0 <= x196 <= 1
 0 <= x197 <= 1
 0 <= x198 <= 1
 0 <= x199 <= 1
 0 <= x200 <= 1
 0 <= x201 <= 1
 0 <= x202 <= 1
 0 <= x203 <= 1
 0 <= x204 <= 1
 0 <= x205 <= 1
 0 <= x206 <= 1
 0 <= x207 <= 1
 0 <= x208 <= 1
 0 <= x209 <= 1
 0 <= x210 <= 1
 0 <= x211 <= 1
 0 <= x212 <= 1
 0 <= x213 <= 1
 0 <= x214 <= 1
 0 <= x215 <= 1
 0 <= x216 <= 1
 0 <= x217 <= 1
 0 <= x218 <= 1
 0 <= x219 <= 1
 0 <= x220 <= 1
 0 <= x221 <= 1
 0 <= x222 <= 1
 0 <= x223 <= 1
 0 <= x224 <= 1
 0 <= x225 <= 1
 0 <= x226 <= 1
 0 <= x227 <= 1
 0 <= x228 <= 1
 0 <= x229 <= 1
 0 <= x230 <= 1
 0 <= x231 <= 1
 0 <= x232 <= 1
 0 <= x233 <= 1
 0 <= x234 <= 1
 0 <= x235 <= 1
 0 <= x236 <= 1
 0 <= x237 <= 1
 0 <= x238 <= 1
 0 <= x239 <= 1
 0 <= x240 <= 1
 0 <= x241 <= 1
 0 <= x242 <= 1
 0 <= x243 <= 1
 0 <= x244 <= 1
 0 <= x245 <= 1
 0 <= x246 <= 1
 0 <= x247 <= 1
 0 <= x248 <= 1
 0 <= x249 <= 1
 0 <= x250 <= 1
 0 <= x251 <= 1
 0 <= x252 <= 1
 0 <= x253 <= 1
 0 <= x254 <= 1
 0 <= x255 <= 1
 0 <= x256 <= 1
 0 <= x257 <= 1
 0 <= x258 <= 1
 0 <= x259 <= 1
 0 <= x260 <= 1
 0 <= x261 <= 1
 0 <= x262 <= 1
 0 <= x263 <= 1
 0 <= x264 <= 1
 0 <= x265 <= 1
 0 <= x266 <= 1
 0 <= x267 <= 1
 0 <= x268 <= 1
 0 <= x269 <= 1
 0 <= x270 <= 1
 0 <= x271 <= 1
 0 <= x272 <= 1
 0 <= x273 <= 1
 0 <= x274 <= 1
 0 <= x275 <= 1
 0 <= x276 <= 1
 0 <= x277 <= 1
 0 <= x278 <= 1
 0 <= x279 <= 1
 0 <= x280 <= 1
 0 <= x281 <= 1
 0 <= x282 <= 1
 0 <= x283 <= 1
 0 <= x284 <= 1
 0 <= x285 <= 1
 0 <= x286 <= 1
 0 <= x287 <= 1
 0 <= x288 <= 1
 0 <= x289 <= 1
 0 <= x290 <= 1
 0 <= x291 <= 1
 0 <= x292 <= 1
 0 <= x293 <= 1
 0 <= x294 <= 1
 0 <= x295 <= 1
 0 <= x296 <= 1
 0 <= x297 <= 1
 0 <= x298 <= 1
 0 <= x299 <= 1
 0 <= x300 <= 1
 0 <= x301 <= 1
 0 <= x302 <= 1
 0 <= x303 <= 1
 0 <= x304 <= 1
 0 <= x305 <= 1
 0 <= x306 <= 1
 0 <= x307 <= 1
 0 <= x308 <= 1
 0 <= x309 <= 1
 0 <= x310 <= 1
 0 <= x311 <= 1
 0 <= x312 <= 1
 0 <= x313 <= 1
 0 <= x314 <= 1
 0 <= x315 <= 1
 0 <= x316 <= 1
 0 <= x317 <= 1
 0 <= x318 <= 1
 0 <= x319 <= 1
 0 <= x320 <= 1
 0 <= x321 <= 1
 0 <= x322 <= 1
 0 <= x323 <= 1
 0 <= x324 <= 1
 0 <= x325 <= 1
 0 <= x326 <= 1
 0 <= x327 <= 1
 0 <= x328 <= 1
 0 <= x329 <= 1
 0 <= x330 <= 1
 0 <= x331 <= 1
 0 <= x332 <= 1
 0 <= x333 <= 1
 0 <= x334 <= 1
 0 <= x335 <= 1
 0 <= x336 <= 1
 0 <= x337 <= 1
 0 <= x338 <= 1
 0 <= x339 <= 1
 0 <= x340 <= 1
 0 <= x341 <= 1
 0 <= x342 <= 1
 0 <= x343 <= 1
 0 <= x344 <= 1
 0 <= x345 <= 1
 0 <= x346 <= 1
 0 <= x347 <= 1
 0 <= x348 <= 1
 0 <= x349 <= 1
 0 <= x350 <= 1
 0 <= x351 <= 1
 0 <= x352 <= 1
 0 <= x353 <= 1
 0 <= x354 <= 1
 0 <= x355 <= 1
 0 <= x356 <= 1
 0 <= x357 <= 1
 0 <= x358 <= 1
 0 <= x359 <= 1
 0 <= x360 <= 1
 0 <= x361 <= 1
 0 <= x362 <= 1
 0 <= x363 <= 1
 0 <= x364 <= 1
 0 <= x365 <= 1
 0 <= x366 <= 1
 0 <= x367 <= 1
 0 <= x368 <= 1
 0 <= x369 <= 1
 0 <= x370 <= 1
 0 <= x371 <= 1
 0 <= x372 <= 1
 0 <= x373 <= 1
 0 <= x374 <= 1
 0 <= x375 <= 1
 0 <= x376 <= 1
 0 <= x377 <= 1
 0 <= x378 <= 1
 0 <= x379 <= 1
 0 <= x380 <= 1
 0 <= x381 <= 1
 0 <= x382 <= 1
 0 <= x383 <= 1
 0 <= x384 <= 1
 0 <= x385 <= 1
 0 <= x386 <= 1
 0 <= x387 <= 1
 0 <= x388 <= 1
 0 <= x389 <= 1
 0 <= x390 <= 1
 0 <= x391 <= 1
 0 <= x392 <= 1
 0 <= x393 <= 1
 0 <= x394 <= 1
 0 <= x395 <= 1
 0 <= x396 <= 1
 0 <= x397 <= 1
 0 <= x398 <= 1
 0 <= x399 <= 1
 0 <= x400 <= 1
 0 <= x401 <= 1
 0 <= x402 <= 1
 0 <= x403 <= 1
 0 <= x404 <= 1
 0 <= x405 <= 1
 0 <= x406 <= 1
 0 <= x407 <= 1
 0 <= x408 <= 1
 0 <= x409 <= 1
 0 <= x410 <= 1
 0 <= x411 <= 1
 0 <= x412 <= 1
 0 <= x413 <= 1
 0 <= x414 <= 1
 0 <= x415 <= 1
 0 <= x416 <= 1
 0 <= x417 <= 1
 0 <= x418 <= 1
 0 <= x419 <= 1
 0 <= x420 <= 1
 0 <= x421 <= 1
 0 <= x422 <= 1
 0 <= x423 <= 1
 0 <= x424 <= 1
 0 <= x425 <= 1
 0 <= x426 <= 1
 0 <= x427 <= 1
 0 <= x428 <= 1
 0 <= x429 <= 1
 0 <= x430 <= 1
 0 <= x431 <= 1
 0 <= x432 <= 1
 0 <= x433 <= 1
 0 <= x434 <= 1
 0 <= x435 <= 1
 0 <= x436 <= 1
 0 <= x437 <= 1
 0 <= x438 <= 1
 0 <= x439 <= 1
 0 <= x440 <= 1
 0 <= x441 <= 1
 0 <= x442 <= 1
 0 <= x443 <= 1
 0 <= x444 <= 1
 0 <= x445 <= 1
 0 <= x446 <= 1
 0 <= x447 <= 1
 0 <= x448 <= 1
 0 <= x449 <= 1
 0 <= x450 <= 1
 0 <= x451 <= 1
 0 <= x452 <= 1
 0 <= x453 <= 1
 0 <= x454 <= 1
 0 <= x455 <= 1
 0 <= x456 <= 1
 0 <= x457 <= 1
 0 <= x458 <= 1
 0 <= x459 <= 1
 0 <= x460 <= 1
 0 <= x461 <= 1
 0 <= x462 <= 1
 0 <= x463 <= 1
 0 <= x464 <= 1
 0 <= x465 <= 1
 0 <= x466 <= 1
 0 <= x467 <= 1
 0 <= x468 <= 1
 0 <= x469 <= 1
 0 <= x470 <= 1
 0 <= x471 <= 1
 0 <= x472 <= 1
 0 <= x473 <= 1
 0 <= x474 <= 1
 0 <= x475 <= 1
 0 <= x476 <= 1
 0 <= x477 <= 1
 0 <= x478 <= 1
 0 <= x479 <= 1
 0 <= x480 <= 1
 0 <= x481 <= 1
 0 <= x482 <= 1
 0 <= x483 <= 1
 0 <= x484 <= 1
 0 <= x485 <= 1
 0 <= x486 <= 1
 0 <= x487 <= 1
 0 <= x488 <= 1
 0 <= x489 <= 1
 0 <= x490 <= 1
 0 <= x491 <= 1
 0 <= x492 <= 1
 0 <= x493 <= 1
 0 <= x494 <= 1
 0 <= x495 <= 1
 0 <= x496 <= 1
 0 <= x497 <= 1
 0 <= x498 <= 1
 0 <= x499 <= 1
 0 <= x500 <= 1
 0 <= x501 <= 1
 0 <= x502 <= 1
 0 <= x503 <= 1
 0 <= x504 <= 1
 0 <= x505 <= 1
 0 <= x506 <= 1
 0 <= x507 <= 1
 0 <= x508 <= 1
 0 <= x509 <= 1
 0 <= x510 <= 1
 0 <= x511 <= 1
 0 <= x512 <= 1
 0 <= x513 <= 1
 0 <= x514 <= 1
 0 <= x515 <= 1
 0 <= x516 <= 1
 0 <= x517 <= 1
 0 <= x518 <= 1
 0 <= x519 <= 1
 0 <= x520 <= 1
 0 <= x521 <= 1
 0 <= x522 <= 1
 0 <= x523 <= 1
 0 <= x524 <= 1
 0 <= x525 <= 1
 0 <= x526 <= 1
 0 <= x527 <= 1
 0 <= x528 <= 1
 0 <= x529 <= 1
 0 <= x530 <= 1
 0 <= x531 <= 1
 0 <= x532 <= 1
 0 <= x533 <= 1
 0 <= x534 <= 1
 0 <= x535 <= 1
 0 <= x536 <= 1
 0 <= x537 <= 1
 0 <= x538 <= 1
 0 <= x539 <= 1
 0 <= x540 <= 1
 0 <= x541 <= 1
 0 <= x542 <= 1
 0 <= x543 <= 1
 0 <= x544 <= 1
 0 <= x545 <= 1
 0 <= x546 <= 1
 0 <= x547 <= 1
 0 <= x548 <= 1
 0 <= x549 <= 1
 0 <= x550 <= 1
Binaries
 x501  x502  x503  x504  x505  x506  x507  x508  x509  x510  x511  x512  x513 
 x514  x515  x516  x517  x518  x519  x520  x521  x522  x523  x524  x525  x526 
 x527  x528  x529  x530  x531  x532  x533  x534  x535  x536  x537  x538  x539 
 x540  x541  x542  x543  x544  x545  x546  x547  x548  x549  x550 
End
